% File represents an instance of a Composite Structure problem to be solved by a CP framework
% Created on 2025-03-26 10:41:39.918
T = 58;
n = 25;
m = 40;
edges = [(1, 2),
(7, 6),
(11, 12),
(17, 16),
(21, 22),
(2, 3),
(7, 8),
(13, 12),
(17, 18),
(23, 22),
(3, 4),
(8, 9),
(14, 13),
(19, 18),
(23, 24),
(5, 4),
(9, 10),
(14, 15),
(19, 20),
(24, 25),
(1, 6),
(11, 6),
(11, 16),
(21, 16),
(7, 2),
(7, 12),
(17, 12),
(17, 22),
(8, 3),
(13, 8),
(18, 13),
(18, 23),
(9, 4),
(14, 9),
(19, 14),
(19, 24),
(5, 10),
(15, 10),
(20, 15),
(20, 25)];
counts = [|10, 18, 10, 18,
|10, 16, 10, 18,
|8, 16, 8, 16,
|8, 12, 8, 16,
|10, 12, 10, 16,
|10, 18, 10, 16,
|10, 18, 10, 18,
|8, 18, 8, 18,
|8, 18, 8, 16,
|8, 12, 8, 16,
|10, 20, 10, 18,
|8, 18, 8, 18,
|8, 18, 8, 20,
|8, 18, 8, 22,
|8, 14, 8, 20,
|8, 20, 8, 16,
|8, 22, 8, 20,
|8, 20, 8, 20,
|8, 20, 8, 22,
|8, 18, 8, 22,
|8, 20, 8, 18,
|8, 18, 8, 18,
|8, 20, 8, 18,
|8, 20, 8, 16,
|8, 18, 8, 16|];
